Traveling Salesman Problem/TSP_generados/Aleatorio1621103365_12.tsp
NAME: Aleatorio1621103365_12.tsp
COMMENT: Randomly generated scenario
TYPE: TSP
DIMENSION: 12
EDGE_WEIGHT_TYPE: ATT
NODE_COORD_SECTION
1 11.03 21.52
2 6.11 17.08
3 26.26 12.42
4 13.74 40.34
5 20.62 16.59
6 23.34 40.8
7 4.22 43.69
8 43.35 1.84
9 27.16 25.24
10 12.99 46.4
11 16.75 7.46
12 24.64 21.33
