Traveling Salesman Problem/TSP_generados/Aleatorio1621103365_12.opt.tour
NAME: Aleatorio1621103365_12.opt.tour
COMMENT: Optimal solution for Aleatorio1621103365_12 (150.25025029271404)
TYPE: TOUR
DIMENSION: 12
TOUR_SECTION
1 2 11 8 3 5 12 9 6 4 10 7
-1
EOF
